NAME: I13509-n39-k5
COMMENT : (Fake et al, No of trucks: 5, Optimal value: )
TYPE : CVRP
DIMENSION : 39
EDGE_WEIGHT_TYPE : EUC_2D
CAPACITY : 17
NODE_COORD_SECTION
1 727 468
2 441 766
3 286 458
4 326 708
5 511 745
6 636 901
7 863 854
8 299 464
9 188 956
10 931 788
11 597 25
12 640 332
13 544 752
14 946 587
15 434 627
16 912 244
17 964 518
18 835 689
19 836 667
20 948 114
21 819 249
22 420 810
23 919 294
24 320 575
25 70 738
26 151 835
27 858 291
28 706 234
29 788 758
30 265 268
31 611 747
32 373 733
33 184 184
34 551 745
35 535 829
36 124 160
37 56 513
38 355 908
39 469 989
DEMAND_SECTION
1 0
2 1
3 2
4 2
5 2
6 1
7 1
8 1
9 3
10 1
11 2
12 1
13 1
14 3
15 3
16 1
17 2
18 2
19 1
20 3
21 2
22 1
23 3
24 3
25 1
26 3
27 2
28 3
29 2
30 1
31 2
32 3
33 3
34 2
35 3
36 2
37 1
38 1
39 3
DEPOT_SECTION
 1
 -1
 EOF 